17	4
12	24	19	19	
0	0	0	0	0	3	2	3	4	
1	2	0	9	0	1	11	
5	2	8	3	0	3	5	7	15	
7	6	7	0	0	3	6	8	9	
10	0	0	1	0	2	17	17	
25	0	8	0	0	3	10	13	17	
125	0	5	0	0	3	12	16	17	
25	6	0	0	6	3	13	17	17	
125	0	3	1	0	3	11	17	17	
225	0	0	0	10	2	17	17	
75	1	9	7	0	1	14	
175	2	10	0	8	2	13	17	
4	0	0	3	0	1	17	
2	7	10	0	0	2	17	17	
7	4	7	3	1	1	16	
6	0	7	9	0	2	17	17	
0	0	0	0	0	0	
